598,150
996,177
923,230
894,298
787,300
690,465
667,494
746,820
885,806
1023,517
1045,142
972,195
923,230
681,286
654,321
311,526
598,150
820,-21
926,-75
1137,258
1006,457
681,736
580,719
601,366
681,286
820,-21
616,-8
317,142
653,415
721,486
787,300
707,393
653,583
667,494
625,761
580,719
521,487
653,583
441,528
317,142
196,249
441,528
414,542
707,393
735,512
1023,517
1081,202
1117,89
926,-75
